# Solution for model problem
# Objective value = 3
CLIENT_PE0_0 1
CLIENT_PE2_1 1
CLIENT_PE4_3 1
CLIENT_PE2_0 0
CLIENT_PE3_0 0
CLIENT_PE4_0 0
CLIENT_PE6_0 0
CLIENT_PE7_0 0
CLIENT_PE13_0 0
CLIENT_PE14_0 0
CLIENT_PE0_1 0
CLIENT_PE3_1 0
CLIENT_PE4_1 0
CLIENT_PE6_1 0
CLIENT_PE7_1 0
CLIENT_PE13_1 0
CLIENT_PE14_1 0
CLIENT_PE0_3 0
CLIENT_PE2_3 0
CLIENT_PE3_3 0
CLIENT_PE6_3 0
CLIENT_PE7_3 0
CLIENT_PE13_3 0
CLIENT_PE14_3 0
